NAME : rnd22_20.tsp
TYPE : TSP
DIMENSION : 20
EDGE_WEIGHT_TYPE : EUC_2D
NODE_COORD_SECTION
1 974 498
2 786 952
3 295 752
4 139 436
5 894 150
6 931 997
7 545 979
8 374 868
9 547 223
10 667 226
11 291 407
12 728 469
13 72 103
14 415 763
15 940 292
16 339 99
17 616 361
18 704 897
19 186 516
20 871 121
